
===== New CPLEX run =====
Instance: /home/yorig/tuner/mpils-tests/instances/miplib/easy/lotsize.mps
Config: /scratch/yorig/mpils-results-grid-ticks-10000/easy/16proc/seed-9/4_lotsize_seed-9_20260425_202405/expansion/config_param_CPXPARAM_MIP_Strategy_VariableSelect_4_iter_1.prm
========================

Selected objective sense:  MINIMIZE
Selected objective  name:  R1921
Selected RHS        name:  B
Selected bound      name:  BOUND
Version identifier: 22.1.2.0 | 2024-11-26 | 0edbb82fd
CPXPARAM_Threads                                 8
CPXPARAM_Parallel                                1
CPXPARAM_MIP_Cuts_Cliques                        -1
CPXPARAM_MIP_Strategy_VariableSelect             4
CPXPARAM_MIP_Cuts_FlowCovers                     2
CPXPARAM_MIP_Cuts_Implied                        2
CPXPARAM_MIP_Cuts_GUBCovers                      -1
CPXPARAM_MIP_Limits_GomoryCand                   50
CPXPARAM_MIP_Cuts_Gomory                         1
CPXPARAM_MIP_Cuts_PathCut                        -1
CPXPARAM_MIP_Cuts_MIRCut                         2
CPXPARAM_MIP_Cuts_Disjunctive                    -1
CPXPARAM_Emphasis_MIP                            1
CPXPARAM_DetTimeLimit                            10000
Tried aggregator 1 time.
MIP Presolve eliminated 595 rows and 0 columns.
MIP Presolve added 1190 rows and 0 columns.
MIP Presolve modified 10 coefficients.
Reduced MIP has 2515 rows, 2985 columns, and 7755 nonzeros.
Reduced MIP has 1195 binaries, 0 generals, 0 SOSs, and 0 indicators.
Presolve time = 0.00 sec. (4.53 ticks)
Probing fixed 0 vars, tightened 5487 bounds.
Probing time = 0.01 sec. (18.38 ticks)
Tried aggregator 2 times.
Detecting symmetries...
MIP Presolve modified 1206 coefficients.
Aggregator did 10 substitutions.
Reduced MIP has 2505 rows, 2975 columns, and 7735 nonzeros.
Reduced MIP has 1195 binaries, 0 generals, 0 SOSs, and 0 indicators.
Presolve time = 0.00 sec. (6.66 ticks)
Probing fixed 0 vars, tightened 2401 bounds.
Probing time = 0.00 sec. (6.41 ticks)
Clique table members: 190.
MIP emphasis: integer feasibility.
MIP search method: dynamic search.
Parallel mode: deterministic, using up to 8 threads.
Root relaxation solution time = 0.01 sec. (9.71 ticks)

        Nodes                                         Cuts/
   Node  Left     Objective  IInf  Best Integer    Best Bound    ItCnt     Gap

      0     0   348385.3466   472                 348385.3466      882         
      0     0   572313.5958   462                   Cuts: 726     1889         
      0     0   831822.5913   565                   Cuts: 726     2717         
      0     0   945966.5491   640                   Cuts: 726     3332         
*     0+    0                       1.01740e+07   945966.5491            90.70%
*     0+    0                      7973370.0000   945966.5491            88.14%
Detecting symmetries...
      0     2   945966.5491   640  7973370.0000   945966.5491     3332   88.14%
Elapsed time = 0.37 sec. (495.68 ticks, tree = 0.02 MB, solutions = 2)
    100    70  1063812.9905   674  7973370.0000   946292.4723    11501   88.13%
    517   400  1099645.0451   514  7973370.0000   946292.4723    18492   88.13%
    847   737  1196861.5457   533  7973370.0000   946292.4723    24256   88.13%
   1429  1203  1524718.7381   280  7973370.0000   946292.4723    33245   88.13%

Performing restart 1

Repeating presolve.
Tried aggregator 1 time.
MIP Presolve modified 1211 coefficients.
Reduced MIP has 2505 rows, 2975 columns, and 7735 nonzeros.
Reduced MIP has 1195 binaries, 0 generals, 0 SOSs, and 0 indicators.
Presolve time = 0.00 sec. (3.84 ticks)
Tried aggregator 1 time.
MIP Presolve modified 1032 coefficients.
Reduced MIP has 2505 rows, 2975 columns, and 7735 nonzeros.
Reduced MIP has 1195 binaries, 0 generals, 0 SOSs, and 0 indicators.
Presolve time = 0.00 sec. (5.12 ticks)
Represolve time = 0.02 sec. (18.63 ticks)
*  1743+    0                      6644005.0000  1005488.4859            84.87%
   1743     0  1136884.5664   706  6644005.0000     Cuts: 726    45172   82.89%
   1743     0  1223882.5157   689  6644005.0000     Cuts: 726    45957   81.58%
   1743     0  1272111.1929   698  6644005.0000     Cuts: 726    46695   80.85%
   1743     2  1272111.1929   698  6644005.0000  1272111.1929    46695   80.85%
   1753    12  1312972.0693   633  6644005.0000  1272182.2601    47211   80.85%
   1783    42  1330315.6001   565  6644005.0000  1272182.2601    47966   80.85%
   1815     5  1306164.3867   673  6644005.0000  1272182.2601    46863   80.85%
   1822    75  1370264.3809   744  6644005.0000  1272331.7537    49981   80.85%
   1939   138  1390861.2709   753  6644005.0000  1309631.0375    75360   80.29%
Elapsed time = 4.35 sec. (5570.77 ticks, tree = 0.11 MB, solutions = 3)
*  2031+  176                      1872242.0000  1309879.9988            30.04%
   2493   483  1406262.9728   532  1872242.0000  1309879.9988   103336   30.04%
*  2825+  932                      1802516.0000  1309879.9988            27.33%
   3468  1146  1671747.5304   204  1802516.0000  1309879.9988   133431   27.33%
*  4197  2009      integral     0  1791212.0000  1309879.9988   160942   26.87%
*  4274  2172      integral     0  1683368.0000  1309879.9988   165537   22.19%
*  4283  1957      integral     0  1669356.0000  1309879.9988   168715   21.53%
*  4518+ 1821                      1591649.0000  1309879.9988            17.70%
*  4537+ 1821                      1570845.0000  1309879.9988            16.61%
   4732  1531  1396738.7846   731  1570845.0000  1309879.9988   192478   16.61%
   5684  2295  1532069.1137   394  1570845.0000  1309879.9988   230150   16.61%
*  5784+ 1996                      1550530.0000  1309879.9988            15.52%
*  5803+ 1984                      1520634.0000  1309879.9988            13.86%
*  5814+ 1983                      1515373.0000  1309879.9988            13.56%
*  5825+ 1983                      1513161.0000  1309879.9988            13.43%
*  5830+ 1983                      1512531.0000  1309879.9988            13.40%
*  5835+ 1981                      1508701.0000  1309879.9988            13.18%
*  5906+ 2376                      1508701.0000  1309879.9988            13.18%
*  6084+ 2327                      1508701.0000  1309879.9988            13.18%

Cover cuts applied:  26
Implied bound cuts applied:  10
Flow cuts applied:  816
Mixed integer rounding cuts applied:  1086
Multi commodity flow cuts applied:  19
Lift and project cuts applied:  6
Gomory fractional cuts applied:  2

Root node processing (before b&c):
  Real time             =    0.36 sec. (493.74 ticks)
Parallel b&c, 8 threads:
  Real time             =    7.41 sec. (9510.34 ticks)
  Sync time (average)   =    0.55 sec.
  Wait time (average)   =    0.00 sec.
                          ------------
Total (root+branch&cut) =    7.77 sec. (10004.08 ticks)
Gap: 13.18%
Upper bound: 1.5087e+06
Lower bound: 1.30988e+06
End of CPLEX run. Time: 7.77218 seconds

===== New CPLEX run =====
Instance: /home/yorig/tuner/mpils-tests/instances/miplib/easy/lotsize.mps
Config: /scratch/yorig/mpils-results-grid-ticks-10000/easy/16proc/seed-9/4_lotsize_seed-9_20260425_202405/expansion/config_param_CPXPARAM_MIP_Strategy_NodeSelect_0_iter_1.prm
========================

Selected objective sense:  MINIMIZE
Selected objective  name:  R1921
Selected RHS        name:  B
Selected bound      name:  BOUND
Version identifier: 22.1.2.0 | 2024-11-26 | 0edbb82fd
CPXPARAM_Threads                                 8
CPXPARAM_Parallel                                1
CPXPARAM_MIP_Cuts_Cliques                        -1
CPXPARAM_MIP_Strategy_NodeSelect                 0
CPXPARAM_MIP_Cuts_FlowCovers                     2
CPXPARAM_MIP_Cuts_Implied                        2
CPXPARAM_MIP_Cuts_GUBCovers                      -1
CPXPARAM_MIP_Limits_GomoryCand                   50
CPXPARAM_MIP_Cuts_Gomory                         1
CPXPARAM_MIP_Cuts_PathCut                        -1
CPXPARAM_MIP_Cuts_MIRCut                         2
CPXPARAM_MIP_Cuts_Disjunctive                    -1
CPXPARAM_Emphasis_MIP                            1
CPXPARAM_DetTimeLimit                            10000
Tried aggregator 1 time.
MIP Presolve eliminated 595 rows and 0 columns.
MIP Presolve added 1190 rows and 0 columns.
MIP Presolve modified 10 coefficients.
Reduced MIP has 2515 rows, 2985 columns, and 7755 nonzeros.
Reduced MIP has 1195 binaries, 0 generals, 0 SOSs, and 0 indicators.
Presolve time = 0.00 sec. (4.53 ticks)
Probing fixed 0 vars, tightened 5487 bounds.
Probing time = 0.01 sec. (18.38 ticks)
Tried aggregator 2 times.
Detecting symmetries...
MIP Presolve modified 1206 coefficients.
Aggregator did 10 substitutions.
Reduced MIP has 2505 rows, 2975 columns, and 7735 nonzeros.
Reduced MIP has 1195 binaries, 0 generals, 0 SOSs, and 0 indicators.
Presolve time = 0.00 sec. (6.66 ticks)
Probing fixed 0 vars, tightened 2401 bounds.
Probing time = 0.00 sec. (6.41 ticks)
Clique table members: 190.
MIP emphasis: integer feasibility.
MIP search method: dynamic search.
Parallel mode: deterministic, using up to 8 threads.
Root relaxation solution time = 0.01 sec. (9.71 ticks)

        Nodes                                         Cuts/
   Node  Left     Objective  IInf  Best Integer    Best Bound    ItCnt     Gap

      0     0   348385.3466   472                 348385.3466      882         
      0     0   572313.5958   462                   Cuts: 726     1889         
      0     0   831822.5913   565                   Cuts: 726     2717         
      0     0   945966.5491   640                   Cuts: 726     3332         
*     0+    0                       1.01740e+07   945966.5491            90.70%
*     0+    0                      7973370.0000   945966.5491            88.14%
Detecting symmetries...
      0     2   945966.5491   640  7973370.0000   945966.5491     3332   88.14%
Elapsed time = 0.36 sec. (495.68 ticks, tree = 0.02 MB, solutions = 2)
    256   213  1072611.0171   626  7973370.0000   946292.4723    11421   88.13%
    750   641  1633154.7901   282  7973370.0000   946292.4723    21997   88.13%
*  1423+ 1040                      2722210.0000   946292.4723            65.24%
*  1425   995      integral     0  2532089.0000   946292.4723    29209   62.63%
*  1558+ 1202                      2407547.0000   946292.4723            60.69%
*  1584  1241      integral     0  2334646.0000   946292.4723    32361   59.47%
*  1595+ 1241                      2314646.0000   946292.4723            59.12%
*  1957+ 1119                      1897710.0000   946292.4723            50.14%
*  1957+ 1119                      1812900.0000   946292.4723            47.80%
*  1957+ 1119                      1811966.0000   946292.4723            47.78%
*  1957+ 1119                      1806288.0000   946292.4723            47.61%
*  1957+ 1119                      1802166.0000   946292.4723            47.49%
   1957  1119  1802166.0000     0  1802166.0000   946292.4723    31551   47.49%

Performing restart 1

Repeating presolve.
Tried aggregator 1 time.
MIP Presolve modified 1211 coefficients.
Reduced MIP has 2505 rows, 2975 columns, and 7735 nonzeros.
Reduced MIP has 1195 binaries, 0 generals, 0 SOSs, and 0 indicators.
Presolve time = 0.00 sec. (3.84 ticks)
Tried aggregator 1 time.
MIP Presolve modified 1032 coefficients.
Reduced MIP has 2505 rows, 2975 columns, and 7735 nonzeros.
Reduced MIP has 1195 binaries, 0 generals, 0 SOSs, and 0 indicators.
Presolve time = 0.00 sec. (5.12 ticks)
Represolve time = 0.02 sec. (21.18 ticks)
   1958     0  1118123.6201   710  1802166.0000     Cuts: 726    38480   37.96%
   1958     0  1212713.7346   693  1802166.0000     Cuts: 726    39329   32.71%
   1958     0  1269178.2864   714  1802166.0000     Cuts: 726    40081   29.57%
   1958     2  1269178.2864   714  1802166.0000  1269178.2864    40081   29.57%
   1978    22  1308566.2980   622  1802166.0000  1269213.3126    40838   29.57%
   1998    42  1351094.2555   575  1802166.0000  1269213.3126    41499   29.57%
   2029    73  1393530.4945   499  1802166.0000  1269213.3126    42179   29.57%
   2063   106  1487693.2107   473  1802166.0000  1269226.1042    44043   29.57%
   2410   314  1798810.5101   222  1802166.0000  1269226.1042    69899   29.57%
Elapsed time = 4.25 sec. (5364.26 ticks, tree = 0.37 MB, solutions = 14)
   3276   823  1801348.1022   133  1802166.0000  1269226.1042   101143   29.57%
   5123  1469        cutoff        1802166.0000  1269226.1042   139728   29.57%
   7202  1711  1576684.5208   384  1802166.0000  1269226.1042   177055   29.57%
   8440  2307  1781272.3461   258  1802166.0000  1269226.1042   208306   29.57%

Cover cuts applied:  20
Implied bound cuts applied:  15
Flow cuts applied:  788
Mixed integer rounding cuts applied:  1129
Multi commodity flow cuts applied:  13
Lift and project cuts applied:  17
Gomory fractional cuts applied:  2

Root node processing (before b&c):
  Real time             =    0.36 sec. (493.50 ticks)
Parallel b&c, 8 threads:
  Real time             =    7.89 sec. (9508.85 ticks)
  Sync time (average)   =    1.15 sec.
  Wait time (average)   =    0.00 sec.
                          ------------
Total (root+branch&cut) =    8.25 sec. (10002.35 ticks)
Gap: 29.57%
Upper bound: 1.80217e+06
Lower bound: 1.26923e+06
End of CPLEX run. Time: 8.24994 seconds

===== New CPLEX run =====
Instance: /home/yorig/tuner/mpils-tests/instances/miplib/easy/lotsize.mps
Config: /scratch/yorig/mpils-results-grid-ticks-10000/easy/16proc/seed-9/4_lotsize_seed-9_20260425_202405/expansion/config_param_CPXPARAM_MIP_Strategy_NodeSelect_2_iter_1.prm
========================

Selected objective sense:  MINIMIZE
Selected objective  name:  R1921
Selected RHS        name:  B
Selected bound      name:  BOUND
Version identifier: 22.1.2.0 | 2024-11-26 | 0edbb82fd
CPXPARAM_Threads                                 8
CPXPARAM_Parallel                                1
CPXPARAM_MIP_Cuts_Cliques                        -1
CPXPARAM_MIP_Strategy_NodeSelect                 2
CPXPARAM_MIP_Cuts_FlowCovers                     2
CPXPARAM_MIP_Cuts_Implied                        2
CPXPARAM_MIP_Cuts_GUBCovers                      -1
CPXPARAM_MIP_Limits_GomoryCand                   50
CPXPARAM_MIP_Cuts_Gomory                         1
CPXPARAM_MIP_Cuts_PathCut                        -1
CPXPARAM_MIP_Cuts_MIRCut                         2
CPXPARAM_MIP_Cuts_Disjunctive                    -1
CPXPARAM_Emphasis_MIP                            1
CPXPARAM_DetTimeLimit                            10000
Tried aggregator 1 time.
MIP Presolve eliminated 595 rows and 0 columns.
MIP Presolve added 1190 rows and 0 columns.
MIP Presolve modified 10 coefficients.
Reduced MIP has 2515 rows, 2985 columns, and 7755 nonzeros.
Reduced MIP has 1195 binaries, 0 generals, 0 SOSs, and 0 indicators.
Presolve time = 0.00 sec. (4.53 ticks)
Probing fixed 0 vars, tightened 5487 bounds.
Probing time = 0.01 sec. (18.38 ticks)
Tried aggregator 2 times.
Detecting symmetries...
MIP Presolve modified 1206 coefficients.
Aggregator did 10 substitutions.
Reduced MIP has 2505 rows, 2975 columns, and 7735 nonzeros.
Reduced MIP has 1195 binaries, 0 generals, 0 SOSs, and 0 indicators.
Presolve time = 0.00 sec. (6.66 ticks)
Probing fixed 0 vars, tightened 2401 bounds.
Probing time = 0.00 sec. (6.41 ticks)
Clique table members: 190.
MIP emphasis: integer feasibility.
MIP search method: dynamic search.
Parallel mode: deterministic, using up to 8 threads.
Root relaxation solution time = 0.01 sec. (9.71 ticks)

        Nodes                                         Cuts/
   Node  Left     Objective  IInf  Best Integer    Best Bound    ItCnt     Gap

      0     0   348385.3466   472                 348385.3466      882         
      0     0   572313.5958   462                   Cuts: 726     1889         
      0     0   831822.5913   565                   Cuts: 726     2717         
      0     0   945966.5491   640                   Cuts: 726     3332         
*     0+    0                       1.01740e+07   945966.5491            90.70%
*     0+    0                      7973370.0000   945966.5491            88.14%
Detecting symmetries...
      0     2   945966.5491   640  7973370.0000   945966.5491     3332   88.14%
Elapsed time = 0.37 sec. (495.68 ticks, tree = 0.02 MB, solutions = 2)
    100    70  1063812.9905   674  7973370.0000   946292.4723    11501   88.13%
    517   400  1099645.0451   514  7973370.0000   946292.4723    18492   88.13%
    847   737  1196861.5457   533  7973370.0000   946292.4723    24256   88.13%
   1429  1203  1524718.7381   280  7973370.0000   946292.4723    33245   88.13%

Performing restart 1

Repeating presolve.
Tried aggregator 1 time.
MIP Presolve modified 1211 coefficients.
Reduced MIP has 2505 rows, 2975 columns, and 7735 nonzeros.
Reduced MIP has 1195 binaries, 0 generals, 0 SOSs, and 0 indicators.
Presolve time = 0.00 sec. (3.84 ticks)
Tried aggregator 1 time.
MIP Presolve modified 1032 coefficients.
Reduced MIP has 2505 rows, 2975 columns, and 7735 nonzeros.
Reduced MIP has 1195 binaries, 0 generals, 0 SOSs, and 0 indicators.
Presolve time = 0.00 sec. (5.12 ticks)
Represolve time = 0.02 sec. (18.63 ticks)
*  1743+    0                      6644005.0000  1005488.4859            84.87%
   1743     0  1136884.5664   706  6644005.0000     Cuts: 726    45172   82.89%
   1743     0  1223882.5157   689  6644005.0000     Cuts: 726    45957   81.58%
   1743     0  1272111.1929   698  6644005.0000     Cuts: 726    46695   80.85%
   1743     2  1272111.1929   698  6644005.0000  1272111.1929    46695   80.85%
   1753    12  1312972.0693   633  6644005.0000  1272182.2601    47211   80.85%
   1783    42  1330315.6001   565  6644005.0000  1272182.2601    47966   80.85%
   1815     5  1306164.3867   673  6644005.0000  1272182.2601    46863   80.85%
   1822    75  1370264.3809   744  6644005.0000  1272331.7537    49981   80.85%
   1939   138  1390861.2709   753  6644005.0000  1309631.0375    75360   80.29%
Elapsed time = 4.36 sec. (5570.77 ticks, tree = 0.11 MB, solutions = 3)
*  2031+  176                      1872242.0000  1309879.9988            30.04%
   2493   483  1406262.9728   532  1872242.0000  1309879.9988   103336   30.04%
*  2825+  932                      1802516.0000  1309879.9988            27.33%
   3468  1146  1671747.5304   204  1802516.0000  1309879.9988   133431   27.33%
*  4197  2009      integral     0  1791212.0000  1309879.9988   160942   26.87%
*  4274  2172      integral     0  1683368.0000  1309879.9988   165537   22.19%
*  4283  1957      integral     0  1669356.0000  1309879.9988   168715   21.53%
*  4518+ 1821                      1591649.0000  1309879.9988            17.70%
*  4537+ 1821                      1570845.0000  1309879.9988            16.61%
   4732  1531  1396738.7846   731  1570845.0000  1309879.9988   192478   16.61%
   5684  2295  1532069.1137   394  1570845.0000  1309879.9988   230150   16.61%
*  5784+ 1996                      1550530.0000  1309879.9988            15.52%
*  5803+ 1984                      1520634.0000  1309879.9988            13.86%
*  5814+ 1983                      1515373.0000  1309879.9988            13.56%
*  5825+ 1983                      1513161.0000  1309879.9988            13.43%
*  5830+ 1983                      1512531.0000  1309879.9988            13.40%
*  5835+ 1981                      1508701.0000  1309879.9988            13.18%
*  5906+ 2376                      1508701.0000  1309879.9988            13.18%
*  6084+ 2327                      1508701.0000  1309879.9988            13.18%

Cover cuts applied:  26
Implied bound cuts applied:  10
Flow cuts applied:  816
Mixed integer rounding cuts applied:  1086
Multi commodity flow cuts applied:  19
Lift and project cuts applied:  6
Gomory fractional cuts applied:  2

Root node processing (before b&c):
  Real time             =    0.37 sec. (493.74 ticks)
Parallel b&c, 8 threads:
  Real time             =    7.43 sec. (9510.34 ticks)
  Sync time (average)   =    0.55 sec.
  Wait time (average)   =    0.00 sec.
                          ------------
Total (root+branch&cut) =    7.80 sec. (10004.08 ticks)
Gap: 13.18%
Upper bound: 1.5087e+06
Lower bound: 1.30988e+06
End of CPLEX run. Time: 7.7985 seconds

===== New CPLEX run =====
Instance: /home/yorig/tuner/mpils-tests/instances/miplib/easy/lotsize.mps
Config: /scratch/yorig/mpils-results-grid-ticks-10000/easy/16proc/seed-9/4_lotsize_seed-9_20260425_202405/expansion/config_param_CPXPARAM_MIP_Strategy_NodeSelect_3_iter_1.prm
========================

Selected objective sense:  MINIMIZE
Selected objective  name:  R1921
Selected RHS        name:  B
Selected bound      name:  BOUND
Version identifier: 22.1.2.0 | 2024-11-26 | 0edbb82fd
CPXPARAM_Threads                                 8
CPXPARAM_Parallel                                1
CPXPARAM_MIP_Cuts_Cliques                        -1
CPXPARAM_MIP_Strategy_NodeSelect                 3
CPXPARAM_MIP_Cuts_FlowCovers                     2
CPXPARAM_MIP_Cuts_Implied                        2
CPXPARAM_MIP_Cuts_GUBCovers                      -1
CPXPARAM_MIP_Limits_GomoryCand                   50
CPXPARAM_MIP_Cuts_Gomory                         1
CPXPARAM_MIP_Cuts_PathCut                        -1
CPXPARAM_MIP_Cuts_MIRCut                         2
CPXPARAM_MIP_Cuts_Disjunctive                    -1
CPXPARAM_Emphasis_MIP                            1
CPXPARAM_DetTimeLimit                            10000
Tried aggregator 1 time.
MIP Presolve eliminated 595 rows and 0 columns.
MIP Presolve added 1190 rows and 0 columns.
MIP Presolve modified 10 coefficients.
Reduced MIP has 2515 rows, 2985 columns, and 7755 nonzeros.
Reduced MIP has 1195 binaries, 0 generals, 0 SOSs, and 0 indicators.
Presolve time = 0.00 sec. (4.53 ticks)
Probing fixed 0 vars, tightened 5487 bounds.
Probing time = 0.01 sec. (18.38 ticks)
Tried aggregator 2 times.
Detecting symmetries...
MIP Presolve modified 1206 coefficients.
Aggregator did 10 substitutions.
Reduced MIP has 2505 rows, 2975 columns, and 7735 nonzeros.
Reduced MIP has 1195 binaries, 0 generals, 0 SOSs, and 0 indicators.
Presolve time = 0.00 sec. (6.66 ticks)
Probing fixed 0 vars, tightened 2401 bounds.
Probing time = 0.00 sec. (6.41 ticks)
Clique table members: 190.
MIP emphasis: integer feasibility.
MIP search method: dynamic search.
Parallel mode: deterministic, using up to 8 threads.
Root relaxation solution time = 0.01 sec. (9.71 ticks)

        Nodes                                         Cuts/
   Node  Left     Objective  IInf  Best Integer    Best Bound    ItCnt     Gap

      0     0   348385.3466   472                 348385.3466      882         
      0     0   572313.5958   462                   Cuts: 726     1889         
      0     0   831822.5913   565                   Cuts: 726     2717         
      0     0   945966.5491   640                   Cuts: 726     3332         
*     0+    0                       1.01740e+07   945966.5491            90.70%
*     0+    0                      7973370.0000   945966.5491            88.14%
Detecting symmetries...
      0     2   945966.5491   640  7973370.0000   945966.5491     3332   88.14%
Elapsed time = 0.33 sec. (495.68 ticks, tree = 0.02 MB, solutions = 2)
    100    70  1063812.9905   674  7973370.0000   946292.4723    11501   88.13%
    517   400  1099645.0451   514  7973370.0000   946292.4723    18492   88.13%
    847   737  1196861.5457   533  7973370.0000   946292.4723    24256   88.13%
   1429  1203  1524718.7381   280  7973370.0000   946292.4723    33245   88.13%

Performing restart 1

Repeating presolve.
Tried aggregator 1 time.
MIP Presolve modified 1211 coefficients.
Reduced MIP has 2505 rows, 2975 columns, and 7735 nonzeros.
Reduced MIP has 1195 binaries, 0 generals, 0 SOSs, and 0 indicators.
Presolve time = 0.00 sec. (3.84 ticks)
Tried aggregator 1 time.
MIP Presolve modified 1032 coefficients.
Reduced MIP has 2505 rows, 2975 columns, and 7735 nonzeros.
Reduced MIP has 1195 binaries, 0 generals, 0 SOSs, and 0 indicators.
Presolve time = 0.00 sec. (5.12 ticks)
Represolve time = 0.02 sec. (18.56 ticks)
*  1733+    0                      6644005.0000  1005488.4859            84.87%
   1733     0  1133317.2816   700  6644005.0000     Cuts: 726    44616   82.94%
   1733     0  1219190.7311   673  6644005.0000     Cuts: 726    45427   81.65%
   1733     0  1268140.8998   712  6644005.0000     Cuts: 726    46171   80.91%
   1733     2  1268140.8998   712  6644005.0000  1268140.8998    46171   80.91%
   1752    21  1291479.3208   627  6644005.0000  1268171.9988    46994   80.91%
   1763    32  1300845.2339   592  6644005.0000  1268171.9988    47512   80.91%
   1787    56  1313462.0618   566  6644005.0000  1268171.9988    48242   80.91%
   1793    57  1334840.6426   737  6644005.0000  1268171.9988    49474   80.91%
   1868    93  1355789.2009   721  6644005.0000  1268457.2828    68563   80.91%
Elapsed time = 3.92 sec. (5505.51 ticks, tree = 0.29 MB, solutions = 3)
*  2006+  134                      1975801.0000  1281121.2308            35.16%
*  2375+  372                      1650489.0000  1281121.2308            22.38%
   2486   548  1443890.5114   403  1650489.0000  1281121.2308   101424   22.38%
*  2575+  597                      1645276.0000  1281121.2308            22.13%
*  2628+  728                      1623320.0000  1281121.2308            21.08%
   3430  1288  1457837.9109   476  1623320.0000  1281121.2308   141802   21.08%
*  3672+ 1262                      1604734.0000  1281121.2308            20.17%
   4487  2380  1524618.5015   355  1604734.0000  1282551.1928   195348   20.08%
   5177  2940  1453399.2927   541  1604734.0000  1282551.1928   231932   20.08%

Cover cuts applied:  24
Implied bound cuts applied:  16
Flow cuts applied:  867
Mixed integer rounding cuts applied:  1141
Multi commodity flow cuts applied:  18
Lift and project cuts applied:  11
Gomory fractional cuts applied:  2

Root node processing (before b&c):
  Real time             =    0.33 sec. (493.55 ticks)
Parallel b&c, 8 threads:
  Real time             =    8.10 sec. (9508.86 ticks)
  Sync time (average)   =    1.36 sec.
  Wait time (average)   =    0.00 sec.
                          ------------
Total (root+branch&cut) =    8.42 sec. (10002.41 ticks)
Gap: 20.08%
Upper bound: 1.60473e+06
Lower bound: 1.28255e+06
End of CPLEX run. Time: 8.42376 seconds
